371 5
10 10 10 10 10 

0 0 0 0 0 0 5 2 34 66 98 130 
0 0 0 0 0 0 7 3 27 28 29 30 31 32 
3 1 1 0 0 1 2 26 4 
9 5 3 0 0 10 3 25 24 5 
10 4 3 0 0 6 1 6 
5 5 5 0 0 2 2 23 7 
9 7 6 0 0 4 1 8 
6 6 5 0 0 9 2 22 9 
2 6 4 0 0 2 3 21 20 10 
3 6 7 0 0 4 1 11 
10 5 4 0 0 8 1 12 
5 5 2 0 0 8 3 19 18 13 
10 6 4 0 0 4 1 14 
6 5 7 0 0 9 1 15 
1 7 10 0 0 5 1 16 
9 3 8 0 0 6 1 17 
3 3 3 0 0 5 1 33 
6 3 3 0 0 2 1 33 
3 6 6 0 0 3 1 33 
3 5 6 0 0 3 1 33 
3 9 6 0 0 4 1 33 
2 6 5 0 0 3 1 33 
6 3 3 0 0 5 1 33 
7 6 7 0 0 7 1 33 
7 4 2 0 0 1 1 33 
9 4 7 0 0 8 1 33 
7 8 3 0 0 3 1 33 
5 7 5 0 0 6 1 33 
4 3 3 0 0 5 1 33 
2 5 9 0 0 7 2 33 123 
9 6 7 0 0 4 1 33 
9 1 6 0 0 6 1 33 
0 0 0 0 0 0 1 268 
0 0 0 0 0 0 3 35 36 48 
4 1 1 0 0 2 2 54 37 
4 6 6 0 0 6 2 54 37 
10 10 4 0 0 7 2 41 38 
1 3 5 0 0 2 2 44 39 
7 6 6 0 0 5 2 55 40 
5 3 4 0 0 10 2 51 42 
5 2 5 0 0 5 2 44 43 
2 9 2 0 0 6 1 43 
2 7 5 0 0 7 3 59 50 45 
4 2 4 0 0 5 3 59 56 46 
2 6 3 0 0 3 2 56 46 
6 4 6 0 0 4 1 47 
2 4 7 0 0 3 1 49 
8 6 6 0 0 5 1 49 
9 5 3 0 0 5 2 63 52 
1 4 7 0 0 4 3 63 52 139 
10 4 7 0 0 7 4 64 63 58 53 
7 9 4 0 0 7 3 64 58 53 
10 10 4 0 0 7 3 62 61 57 
2 6 6 0 0 5 3 62 61 57 
7 4 9 0 0 5 2 61 60 
9 4 4 0 0 4 1 57 
10 4 4 0 0 3 1 60 
7 5 6 0 0 4 1 61 
8 2 7 0 0 3 1 63 
6 7 1 0 0 6 1 65 
1 6 4 0 0 6 1 65 
2 3 9 0 0 5 1 65 
9 4 5 0 0 5 1 65 
1 4 6 0 0 4 1 65 
0 0 0 0 0 0 1 268 
0 0 0 0 0 0 3 67 68 96 
1 0 2 1 1 0 2 95 69 
10 0 4 10 4 0 2 95 69 
7 0 7 4 2 0 3 73 70 335 
8 0 5 1 3 0 2 77 71 
9 0 4 3 6 0 2 94 72 
9 0 4 6 7 0 2 84 74 
2 0 4 5 6 0 2 77 75 
7 0 5 4 3 0 1 75 
7 0 10 3 2 0 3 88 80 76 
3 0 4 8 4 0 2 85 78 
10 0 6 2 4 0 2 88 78 
7 0 6 4 5 0 1 79 
9 0 5 6 2 0 2 93 81 
1 0 5 5 6 0 2 93 82 
3 0 4 3 2 0 1 82 
9 0 3 4 8 0 3 91 87 83 
6 0 6 6 6 0 3 92 90 86 
8 0 4 9 4 0 2 91 86 
4 0 5 6 8 0 1 86 
9 0 4 5 10 0 1 89 
2 0 3 6 6 0 1 90 
6 0 5 7 7 0 1 93 
4 0 8 4 3 0 1 97 
9 0 10 8 3 0 1 97 
9 0 7 3 8 0 1 97 
6 0 3 5 3 0 1 97 
4 0 6 9 7 0 1 97 
7 0 3 4 6 0 1 97 
10 0 2 3 6 0 1 97 
3 0 6 6 8 0 1 97 
0 0 0 0 0 0 1 268 
0 0 0 0 0 0 3 99 113 128 
5 0 1 1 1 0 2 127 100 
10 0 5 6 6 0 3 125 124 101 
5 0 7 5 4 0 1 102 
2 0 5 5 3 0 2 123 103 
4 0 7 2 5 0 3 122 121 104 
10 0 5 4 5 0 2 120 105 
9 0 5 5 3 0 1 106 
9 0 5 6 6 0 2 119 107 
8 0 2 4 4 0 1 108 
8 0 8 5 7 0 2 118 109 
6 0 6 3 4 0 3 117 116 110 
4 0 8 2 1 0 2 115 111 
1 0 6 6 7 0 1 112 
9 0 6 7 3 0 1 114 
1 0 7 6 5 0 1 126 
2 0 5 10 4 0 1 129 
6 0 6 6 8 0 1 129 
8 0 4 4 6 0 2 129 270 
4 0 6 4 9 0 1 129 
4 0 6 3 2 0 1 129 
3 0 4 6 10 0 1 129 
4 0 4 4 5 0 1 129 
7 0 3 7 4 0 1 129 
10 0 4 7 6 0 1 129 
6 0 6 4 4 0 1 129 
9 0 4 6 6 0 1 129 
5 0 7 4 5 0 1 129 
3 0 2 5 3 0 1 129 
6 0 4 6 10 0 1 129 
7 0 2 7 4 0 1 129 
0 0 0 0 0 0 1 268 
0 0 0 0 0 0 2 131 134 
1 0 1 0 0 0 2 136 132 
5 0 6 0 0 0 2 135 133 
3 0 6 0 0 0 3 140 139 137 
3 0 7 0 0 0 3 140 139 137 
5 0 7 0 0 0 3 139 138 252 
3 0 5 0 0 0 2 139 138 
1 0 4 0 0 0 1 138 
6 0 4 0 0 0 1 141 
9 0 5 0 0 0 1 141 
3 0 5 0 0 0 1 141 
0 0 0 0 0 0 4 142 164 176 198 
0 0 0 0 0 0 4 143 148 150 162 
7 0 1 0 0 1 3 155 144 165 
3 0 3 0 0 5 2 161 145 
9 0 3 0 0 5 4 160 159 153 146 
10 0 7 0 0 5 2 157 147 
7 0 9 0 0 5 2 158 149 
10 0 4 0 0 3 2 157 152 
3 0 5 0 0 6 1 151 
1 0 5 0 0 7 2 157 155 
5 0 6 0 0 2 1 152 
9 0 3 0 0 7 1 154 
9 0 7 0 0 8 1 154 
7 0 5 0 0 3 1 156 
3 0 2 0 0 4 1 156 
6 0 8 0 0 4 1 163 
3 0 6 0 0 9 1 163 
10 0 9 0 0 5 1 163 
7 0 5 0 0 3 1 163 
9 0 6 0 0 5 1 163 
8 0 3 0 0 6 1 163 
4 0 3 0 0 7 1 163 
0 0 0 0 0 0 1 268 
0 0 0 0 0 0 4 165 166 168 169 
4 3 0 0 0 0 1 167 
8 4 0 0 0 0 2 167 271 
1 10 0 0 0 0 3 172 171 170 
4 3 0 0 0 0 2 172 170 
5 4 0 0 0 0 2 171 170 
2 4 0 0 0 0 1 173 
6 6 0 0 0 0 1 173 
8 6 0 0 0 0 1 173 
6 5 0 0 0 0 1 174 
6 5 0 0 0 0 1 175 
0 0 0 0 0 0 4 220 232 244 256 
0 0 0 0 0 0 4 177 178 183 184 
8 0 1 0 3 0 2 186 179 
1 0 6 0 5 0 5 191 188 186 185 181 
10 0 3 0 2 0 1 180 
6 0 3 0 3 0 3 191 188 181 
5 0 8 0 8 0 1 182 
1 0 2 0 7 0 2 189 187 
3 0 4 0 6 0 2 189 188 
2 0 3 0 3 0 2 185 266 
3 0 6 0 4 0 2 196 189 
3 0 4 0 4 0 1 187 
3 0 4 0 5 0 2 196 190 
9 0 3 0 9 0 2 196 190 
3 0 10 0 4 0 1 190 
8 0 6 0 5 0 2 195 192 
4 0 5 0 4 0 2 196 193 
2 0 10 0 3 0 1 193 
6 0 9 0 5 0 1 194 
4 0 6 0 10 0 1 197 
6 0 2 0 5 0 1 197 
3 0 5 0 5 0 1 197 
0 0 0 0 0 0 1 268 
0 0 0 0 0 0 3 199 202 205 
1 0 1 0 0 2 2 207 200 
4 0 3 0 0 4 2 218 201 
3 0 5 0 0 9 2 208 203 
3 0 5 0 0 2 4 214 213 209 207 
1 0 5 0 0 2 2 217 204 
10 0 6 0 0 5 2 213 206 
1 0 6 0 0 6 2 207 206 
8 0 6 0 0 2 3 216 211 209 
4 0 6 0 0 4 2 216 211 
9 0 1 0 0 4 1 209 
6 0 5 0 0 6 1 210 
4 0 8 0 0 5 1 212 
2 0 5 0 0 6 2 212 266 
1 0 5 0 0 5 1 215 
4 0 9 0 0 6 1 216 
2 0 2 0 0 9 1 217 
4 0 3 0 0 5 1 219 
3 0 7 0 0 10 1 219 
3 0 7 0 0 6 1 219 
9 0 5 0 0 2 1 219 
0 0 0 0 0 0 1 268 
0 0 0 0 0 0 2 221 223 
5 0 1 0 0 0 2 230 222 
8 0 3 0 0 0 4 229 228 227 224 
1 0 8 0 0 0 2 227 225 
5 0 7 0 0 0 1 225 
9 0 10 0 0 0 1 226 
8 0 3 0 0 0 1 231 
7 0 7 0 0 0 1 231 
8 0 2 0 0 0 1 231 
1 0 3 0 0 0 1 231 
2 0 6 0 0 0 1 231 
0 0 0 0 0 0 1 268 
0 0 0 0 0 0 4 233 238 241 242 
4 0 0 0 0 1 2 237 234 
9 0 0 0 0 4 2 240 235 
9 0 0 0 0 5 1 236 
8 0 0 0 0 6 1 239 
8 0 0 0 0 5 1 240 
8 0 0 0 0 8 1 239 
6 0 0 0 0 4 1 243 
8 0 0 0 0 7 1 243 
5 0 0 0 0 5 1 243 
8 0 0 0 0 5 1 243 
0 0 0 0 0 0 1 268 
0 0 0 0 0 0 1 245 
1 1 0 0 0 0 1 246 
7 5 0 0 0 0 3 249 248 247 
1 4 0 0 0 0 3 254 252 250 
5 4 0 0 0 0 3 254 251 250 
6 4 0 0 0 0 2 254 250 
6 5 0 0 0 0 1 253 
5 8 0 0 0 0 1 253 
10 7 0 0 0 0 1 253 
4 6 0 0 0 0 1 255 
4 6 0 0 0 0 1 255 
0 0 0 0 0 0 1 268 
0 0 0 0 0 0 2 257 259 
5 0 0 0 1 0 2 261 258 
8 0 0 0 3 0 2 263 260 
5 0 0 0 8 0 1 260 
2 0 0 0 3 0 2 264 262 
3 0 0 0 5 0 2 264 262 
4 0 0 0 8 0 2 266 265 
4 0 0 0 7 0 2 266 265 
6 0 0 0 9 0 1 265 
7 0 0 0 4 0 1 267 
10 0 0 0 2 0 1 267 
0 0 0 0 0 0 1 268 
0 0 0 0 0 0 4 269 281 303 325 
0 0 0 0 0 0 5 270 271 272 275 279 
10 0 0 0 0 1 2 278 273 
10 0 0 0 0 6 1 273 
2 0 0 0 0 8 1 273 
4 0 0 0 0 5 1 274 
3 0 0 0 0 4 1 276 
2 0 0 0 0 5 1 276 
10 0 0 0 0 6 1 277 
5 0 0 0 0 5 1 280 
10 0 0 0 0 6 1 280 
3 0 0 0 0 4 1 280 
0 0 0 0 0 0 2 347 359 
0 0 0 0 0 0 3 282 284 291 
9 0 2 1 0 0 1 283 
8 0 3 3 0 0 6 301 300 299 298 297 285 
8 0 4 4 0 0 3 298 297 285 
10 0 5 3 0 0 1 286 
7 0 5 1 0 0 2 293 287 
2 0 5 4 0 0 2 296 288 
10 0 6 7 0 0 1 289 
2 0 4 5 0 0 1 290 
7 0 3 7 0 0 1 292 
4 0 10 5 0 0 1 292 
5 0 7 5 0 0 1 294 
2 0 6 7 0 0 1 295 
8 0 5 3 0 0 1 302 
7 0 7 5 0 0 1 302 
4 0 5 7 0 0 1 302 
9 0 4 5 0 0 1 302 
10 0 3 6 0 0 1 302 
1 0 6 6 0 0 1 302 
1 0 5 8 0 0 1 302 
6 0 5 8 0 0 1 302 
0 0 0 0 0 0 1 371 
0 0 0 0 0 0 1 304 
5 0 1 0 0 1 2 307 305 
8 0 4 0 0 6 1 306 
6 0 10 0 0 6 1 308 
6 0 5 0 0 6 1 308 
4 0 3 0 0 7 2 310 309 
1 0 3 0 0 5 3 319 316 311 
10 0 7 0 0 2 4 316 315 314 313 
3 0 6 0 0 4 2 315 312 
3 0 7 0 0 9 3 317 314 313 
8 0 4 0 0 7 4 323 322 321 318 
10 0 5 0 0 3 4 323 322 321 320 
1 0 6 0 0 7 3 323 321 317 
1 0 5 0 0 3 2 321 320 
9 0 4 0 0 7 1 320 
8 0 9 0 0 6 1 320 
2 0 2 0 0 3 1 322 
5 0 2 0 0 3 1 324 
10 0 6 0 0 6 1 324 
10 0 8 0 0 5 1 324 
2 0 3 0 0 4 1 324 
0 0 0 0 0 0 1 371 
0 0 0 0 0 0 3 326 344 345 
5 0 0 0 1 4 2 343 327 
1 0 0 0 7 4 2 342 328 
5 0 0 0 3 6 4 341 340 339 329 
6 0 0 0 7 10 2 338 330 
3 0 0 0 6 5 2 337 331 
1 0 0 0 6 5 2 336 332 
10 0 0 0 5 6 1 333 
3 0 0 0 7 6 1 334 
8 0 0 0 3 3 1 335 
7 0 0 0 5 5 1 346 
6 0 0 0 5 4 1 346 
10 0 0 0 7 2 1 346 
10 0 0 0 5 8 1 346 
2 0 0 0 7 3 1 346 
5 0 0 0 5 7 1 346 
5 0 0 0 4 7 1 346 
3 0 0 0 2 2 1 346 
8 0 0 0 8 3 1 346 
7 0 0 0 3 6 1 346 
9 0 0 0 4 4 1 346 
0 0 0 0 0 0 1 371 
0 0 0 0 0 0 4 348 349 350 353 
9 0 0 0 0 1 3 357 356 351 
4 0 0 0 0 4 3 357 356 351 
8 0 0 0 0 4 1 351 
3 0 0 0 0 5 1 352 
5 0 0 0 0 8 1 354 
1 0 0 0 0 7 1 354 
8 0 0 0 0 7 1 355 
9 0 0 0 0 6 1 358 
8 0 0 0 0 5 1 358 
5 0 0 0 0 3 1 358 
0 0 0 0 0 0 1 371 
0 0 0 0 0 0 3 360 362 363 
2 0 0 0 1 0 2 369 361 
5 0 0 0 5 0 2 366 364 
9 0 0 0 5 0 3 369 368 366 
4 0 0 0 6 0 2 368 366 
8 0 0 0 4 0 1 365 
7 0 0 0 3 0 2 368 367 
9 0 0 0 5 0 1 367 
2 0 0 0 4 0 1 370 
6 0 0 0 10 0 1 370 
2 0 0 0 7 0 1 370 
0 0 0 0 0 0 1 371 
0 0 0 0 0 0 0 
